306 5
10 10 10 10 10 

0 0 0 0 0 0 5 2 14 26 38 50 
0 0 0 0 0 0 3 3 8 10 
6 0 0 1 0 0 1 4 
3 0 0 10 0 0 1 5 
6 0 0 10 0 0 1 6 
1 0 0 7 0 0 1 7 
6 0 0 8 0 0 2 12 9 
10 0 0 9 0 0 1 9 
4 0 0 9 0 0 1 11 
1 0 0 7 0 0 1 11 
7 0 0 5 0 0 1 13 
4 0 0 9 0 0 1 13 
0 0 0 0 0 0 1 62 
0 0 0 0 0 0 2 15 23 
1 0 2 0 0 0 2 18 16 
8 0 7 0 0 0 1 17 
4 0 6 0 0 0 2 22 19 
5 0 8 0 0 0 2 22 21 
7 0 8 0 0 0 1 20 
5 0 10 0 0 0 1 21 
2 0 6 0 0 0 1 24 
3 0 9 0 0 0 1 24 
5 0 9 0 0 0 1 24 
8 0 10 0 0 0 1 25 
0 0 0 0 0 0 1 62 
0 0 0 0 0 0 3 27 30 36 
2 0 2 0 0 0 1 28 
8 0 7 0 0 0 2 35 29 
6 0 10 0 0 0 1 31 
7 0 10 0 0 0 1 31 
4 0 7 0 0 0 1 32 
1 0 10 0 0 0 1 33 
4 0 8 0 0 0 1 34 
6 0 10 0 0 0 1 37 
3 0 7 0 0 0 1 37 
1 0 4 0 0 0 1 37 
0 0 0 0 0 0 1 62 
0 0 0 0 0 0 2 39 45 
6 0 0 2 0 0 1 40 
9 0 0 5 0 0 1 41 
4 0 0 10 0 0 2 47 42 
4 0 0 6 0 0 1 43 
5 0 0 10 0 0 1 44 
7 0 0 10 0 0 1 46 
5 0 0 6 0 0 1 48 
10 0 0 6 0 0 1 49 
1 0 0 10 0 0 1 49 
7 0 0 10 0 0 1 49 
0 0 0 0 0 0 1 62 
0 0 0 0 0 0 2 51 53 
6 0 0 0 2 0 1 52 
9 0 0 0 10 0 2 60 54 
6 0 0 0 8 0 2 60 54 
1 0 0 0 5 0 1 55 
7 0 0 0 9 0 1 56 
6 0 0 0 10 0 2 59 57 
5 0 0 0 9 0 1 58 
7 0 0 0 6 0 1 61 
3 0 0 0 6 0 1 61 
3 0 0 0 10 0 1 61 
0 0 0 0 0 0 1 62 
0 0 0 0 0 0 5 63 75 87 99 111 
0 0 0 0 0 0 2 64 66 
1 0 0 0 0 3 2 68 65 
10 0 0 0 0 10 1 67 
7 0 0 0 0 9 1 67 
4 0 0 0 0 8 2 73 69 
3 0 0 0 0 10 2 73 71 
3 0 0 0 0 6 1 70 
7 0 0 0 0 3 1 71 
7 0 0 0 0 8 1 72 
5 0 0 0 0 10 1 74 
6 0 0 0 0 8 1 74 
0 0 0 0 0 0 1 123 
0 0 0 0 0 0 1 76 
3 0 0 0 2 0 1 77 
8 0 0 0 10 0 2 80 78 
3 0 0 0 5 0 1 79 
4 0 0 0 7 0 2 82 81 
2 0 0 0 10 0 2 84 82 
5 0 0 0 7 0 2 84 83 
2 0 0 0 9 0 1 83 
5 0 0 0 6 0 1 85 
10 0 0 0 10 0 1 85 
4 0 0 0 9 0 1 86 
0 0 0 0 0 0 1 123 
0 0 0 0 0 0 2 88 89 
3 0 3 0 0 0 2 92 90 
1 0 3 0 0 0 2 92 90 
3 0 10 0 0 0 1 91 
1 0 10 0 0 0 1 93 
5 0 6 0 0 0 1 93 
9 0 8 0 0 0 1 94 
9 0 10 0 0 0 1 95 
7 0 10 0 0 0 2 97 96 
5 0 7 0 0 0 1 98 
6 0 8 0 0 0 1 98 
0 0 0 0 0 0 1 123 
0 0 0 0 0 0 4 100 104 105 109 
3 0 0 0 0 2 1 101 
8 0 0 0 0 6 1 102 
8 0 0 0 0 8 1 103 
7 0 0 0 0 9 1 106 
2 0 0 0 0 7 1 106 
7 0 0 0 0 7 1 106 
4 0 0 0 0 8 1 107 
2 0 0 0 0 10 1 108 
3 0 0 0 0 8 1 110 
5 0 0 0 0 10 1 110 
0 0 0 0 0 0 1 123 
0 0 0 0 0 0 2 112 115 
1 0 0 0 0 2 1 113 
4 0 0 0 0 6 1 114 
7 0 0 0 0 10 3 121 119 116 
10 0 0 0 0 10 2 119 117 
8 0 0 0 0 9 1 117 
9 0 0 0 0 6 1 118 
6 0 0 0 0 10 1 120 
6 0 0 0 0 7 1 120 
5 0 0 0 0 6 1 122 
7 0 0 0 0 9 1 122 
0 0 0 0 0 0 1 123 
0 0 0 0 0 0 5 124 136 148 160 172 
0 0 0 0 0 0 2 125 126 
9 0 0 0 6 0 2 129 127 
7 0 0 0 6 0 2 130 129 
8 0 0 0 5 0 1 128 
10 0 0 0 10 0 2 134 130 
6 0 0 0 9 0 2 134 131 
4 0 0 0 8 0 1 131 
1 0 0 0 4 0 1 132 
7 0 0 0 8 0 1 133 
7 0 0 0 10 0 1 135 
4 0 0 0 9 0 1 135 
0 0 0 0 0 0 1 184 
0 0 0 0 0 0 1 137 
3 0 0 0 3 0 1 138 
2 0 0 0 6 0 2 143 139 
5 0 0 0 7 0 2 142 140 
8 0 0 0 10 0 1 141 
9 0 0 0 10 0 2 146 144 
2 0 0 0 9 0 2 146 145 
9 0 0 0 7 0 1 144 
5 0 0 0 8 0 1 145 
2 0 0 0 7 0 1 147 
4 0 0 0 8 0 1 147 
0 0 0 0 0 0 1 184 
0 0 0 0 0 0 2 149 153 
6 0 0 0 0 2 2 152 150 
2 0 0 0 0 8 1 151 
10 0 0 0 0 10 1 154 
3 0 0 0 0 9 1 154 
3 0 0 0 0 4 1 154 
10 0 0 0 0 5 2 156 155 
4 0 0 0 0 7 1 157 
2 0 0 0 0 10 1 157 
7 0 0 0 0 10 1 158 
5 0 0 0 0 10 1 159 
0 0 0 0 0 0 1 184 
0 0 0 0 0 0 4 161 164 165 170 
8 0 0 0 0 2 1 162 
6 0 0 0 0 6 1 163 
4 0 0 0 0 5 1 166 
4 0 0 0 0 10 1 166 
1 0 0 0 0 10 1 166 
4 0 0 0 0 6 1 167 
3 0 0 0 0 10 1 168 
6 0 0 0 0 10 1 169 
10 0 0 0 0 6 1 171 
9 0 0 0 0 10 1 171 
0 0 0 0 0 0 1 184 
0 0 0 0 0 0 2 173 175 
6 0 0 4 0 0 2 176 174 
9 0 0 10 0 0 1 177 
2 0 0 5 0 0 1 176 
2 0 0 6 0 0 2 182 178 
5 0 0 9 0 0 2 182 178 
4 0 0 10 0 0 1 179 
5 0 0 6 0 0 1 180 
2 0 0 8 0 0 1 181 
3 0 0 7 0 0 1 183 
6 0 0 10 0 0 1 183 
0 0 0 0 0 0 1 184 
0 0 0 0 0 0 5 185 197 209 221 233 
0 0 0 0 0 0 1 186 
7 0 0 0 3 0 1 187 
7 0 0 0 5 0 1 188 
3 0 0 0 9 0 2 191 189 
5 0 0 0 9 0 2 193 190 
10 0 0 0 8 0 2 194 192 
2 0 0 0 7 0 2 194 192 
5 0 0 0 10 0 1 195 
7 0 0 0 9 0 1 194 
5 0 0 0 5 0 1 196 
7 0 0 0 10 0 1 196 
0 0 0 0 0 0 1 245 
0 0 0 0 0 0 2 198 199 
1 0 0 0 6 0 2 201 200 
8 0 0 0 4 0 2 207 201 
3 0 0 0 5 0 2 207 202 
7 0 0 0 9 0 1 202 
5 0 0 0 10 0 1 203 
1 0 0 0 4 0 1 204 
4 0 0 0 9 0 1 205 
7 0 0 0 10 0 1 206 
5 0 0 0 8 0 1 208 
1 0 0 0 10 0 1 208 
0 0 0 0 0 0 1 245 
0 0 0 0 0 0 3 210 218 219 
6 0 0 7 0 0 1 211 
10 0 0 4 0 0 1 212 
2 0 0 5 0 0 1 213 
9 0 0 9 0 0 1 214 
7 0 0 9 0 0 2 217 215 
6 0 0 10 0 0 1 216 
5 0 0 10 0 0 1 220 
4 0 0 5 0 0 1 220 
2 0 0 7 0 0 1 220 
4 0 0 9 0 0 1 220 
0 0 0 0 0 0 1 245 
0 0 0 0 0 0 2 222 226 
10 0 1 0 0 0 1 223 
9 0 8 0 0 0 1 224 
6 0 10 0 0 0 2 231 225 
9 0 7 0 0 0 2 230 227 
4 0 7 0 0 0 2 230 227 
7 0 5 0 0 0 1 228 
9 0 7 0 0 0 1 229 
9 0 10 0 0 0 1 232 
7 0 10 0 0 0 1 232 
5 0 10 0 0 0 1 232 
0 0 0 0 0 0 1 245 
0 0 0 0 0 0 1 234 
4 0 0 2 0 0 1 235 
3 0 0 6 0 0 1 236 
3 0 0 10 0 0 2 238 237 
4 0 0 7 0 0 2 240 239 
3 0 0 7 0 0 1 239 
3 0 0 9 0 0 2 242 241 
6 0 0 10 0 0 2 242 241 
4 0 0 10 0 0 1 243 
1 0 0 5 0 0 1 243 
5 0 0 9 0 0 1 244 
0 0 0 0 0 0 1 245 
0 0 0 0 0 0 5 246 258 270 282 294 
0 0 0 0 0 0 3 247 250 254 
3 0 6 0 0 0 1 248 
10 0 7 0 0 0 1 249 
1 0 3 0 0 0 2 256 251 
6 0 9 0 0 0 2 256 253 
8 0 5 0 0 0 1 252 
4 0 7 0 0 0 1 253 
2 0 9 0 0 0 1 255 
10 0 10 0 0 0 1 255 
7 0 9 0 0 0 1 257 
4 0 10 0 0 0 1 257 
0 0 0 0 0 0 1 306 
0 0 0 0 0 0 2 259 262 
7 0 0 4 0 0 1 260 
5 0 0 5 0 0 1 261 
5 0 0 5 0 0 3 268 267 263 
7 0 0 7 0 0 2 267 264 
5 0 0 10 0 0 1 264 
7 0 0 10 0 0 1 265 
7 0 0 5 0 0 1 266 
6 0 0 9 0 0 1 269 
7 0 0 10 0 0 1 269 
1 0 0 10 0 0 1 269 
0 0 0 0 0 0 1 306 
0 0 0 0 0 0 1 271 
5 0 0 5 0 0 2 277 272 
1 0 0 6 0 0 1 273 
4 0 0 8 0 0 2 279 274 
6 0 0 5 0 0 1 275 
1 0 0 10 0 0 1 276 
7 0 0 10 0 0 1 278 
10 0 0 6 0 0 1 280 
6 0 0 9 0 0 1 281 
1 0 0 6 0 0 1 281 
6 0 0 10 0 0 1 281 
0 0 0 0 0 0 1 306 
0 0 0 0 0 0 3 283 285 288 
2 0 0 0 0 2 2 292 284 
9 0 0 0 0 7 1 286 
8 0 0 0 0 4 2 292 289 
8 0 0 0 0 8 1 287 
3 0 0 0 0 10 1 289 
4 0 0 0 0 9 1 289 
10 0 0 0 0 10 1 290 
10 0 0 0 0 5 1 291 
3 0 0 0 0 10 1 293 
6 0 0 0 0 10 1 293 
0 0 0 0 0 0 1 306 
0 0 0 0 0 0 2 295 296 
8 0 5 0 0 0 3 300 299 297 
5 0 2 0 0 0 3 300 299 298 
7 0 10 0 0 0 1 298 
10 0 4 0 0 0 1 301 
9 0 10 0 0 0 1 301 
9 0 10 0 0 0 1 301 
6 0 10 0 0 0 1 302 
3 0 7 0 0 0 1 303 
2 0 9 0 0 0 1 304 
1 0 8 0 0 0 1 305 
0 0 0 0 0 0 1 306 
0 0 0 0 0 0 0 
